0,35,71,65,66,20,0
0,45,8,46,17,86,38,14,0
0,30,51,9,81,78,34,29,26,0
0,41,22,75,23,67,25,55,4,54,0
0,59,62,19,11,63,90,32,10,70,0
0,31,88,7,82,48,47,36,49,64,0
0,12,2,87,57,15,43,42,97,58,0
0,99,93,94,6,18,83,84,5,60,89,0
0,52,27,28,53,40,21,73,72,74,56,39,0
0,69,76,24,80,68,77,3,79,33,50,1,0
0,95,92,98,85,61,16,44,91,100,37,96,13,0
